NAME: cum150.tsp
TYPE: TSP
COMMENT: User-generated TSP file
DIMENSION: 150
EDGE_WEIGHT_TYPE: EUC_2D
NODE_COORD_SECTION
1 86.0 71.0
2 23.0 117.0
3 28.0 13.0
4 81.0 100.0
5 140.0 149.0
6 149.0 75.0
7 48.0 71.0
8 139.0 116.0
9 146.0 28.0
10 72.0 2.0
11 119.0 94.0
12 2.0 12.0
13 150.0 100.0
14 139.0 73.0
15 90.0 46.0
16 116.0 1.0
17 114.0 52.0
18 101.0 85.0
19 126.0 88.0
20 132.0 117.0
21 77.0 81.0
22 109.0 102.0
23 114.0 91.0
24 56.0 8.0
25 145.0 27.0
26 136.0 104.0
27 120.0 123.0
28 149.0 60.0
29 57.0 120.0
30 148.0 72.0
31 60.0 21.0
32 121.0 85.0
33 130.0 96.0
34 106.0 8.0
35 53.0 118.0
36 26.0 86.0
37 85.0 2.0
38 131.0 25.0
39 121.0 102.0
40 54.0 96.0
41 139.0 116.0
42 149.0 62.0
43 64.0 96.0
44 76.0 140.0
45 148.0 48.0
46 2.0 80.0
47 12.0 90.0
48 80.0 138.0
49 18.0 95.0
50 103.0 61.0
51 51.0 59.0
52 121.0 23.0
53 93.0 22.0
54 148.0 102.0
55 53.0 113.0
56 27.0 53.0
57 8.0 112.0
58 100.0 55.0
59 10.0 67.0
60 50.0 85.0
61 3.0 32.0
62 3.0 81.0
63 7.0 139.0
64 141.0 12.0
65 75.0 3.0
66 15.0 130.0
67 116.0 133.0
68 19.0 4.0
69 106.0 120.0
70 134.0 66.0
71 144.0 36.0
72 134.0 7.0
73 59.0 1.0
74 29.0 50.0
75 21.0 81.0
76 79.0 107.0
77 114.0 22.0
78 142.0 19.0
79 54.0 26.0
80 24.0 92.0
81 50.0 71.0
82 69.0 42.0
83 76.0 134.0
84 82.0 19.0
85 110.0 42.0
86 31.0 38.0
87 27.0 136.0
88 79.0 14.0
89 126.0 27.0
90 57.0 41.0
91 129.0 148.0
92 103.0 128.0
93 111.0 131.0
94 58.0 93.0
95 84.0 69.0
96 28.0 123.0
97 74.0 59.0
98 148.0 135.0
99 115.0 104.0
100 70.0 84.0
101 90.0 36.0
102 34.0 77.0
103 25.0 31.0
104 52.0 28.0
105 6.0 59.0
106 4.0 145.0
107 147.0 144.0
108 20.0 137.0
109 15.0 113.0
110 126.0 61.0
111 50.0 16.0
112 44.0 38.0
113 140.0 2.0
114 12.0 128.0
115 139.0 117.0
116 141.0 83.0
117 62.0 30.0
118 145.0 22.0
119 104.0 145.0
120 103.0 86.0
121 131.0 112.0
122 71.0 78.0
123 33.0 73.0
124 59.0 58.0
125 104.0 35.0
126 44.0 139.0
127 76.0 66.0
128 1.0 91.0
129 28.0 67.0
130 9.0 138.0
131 46.0 104.0
132 60.0 126.0
133 23.0 120.0
134 16.0 91.0
135 70.0 65.0
136 68.0 61.0
137 2.0 76.0
138 136.0 79.0
139 60.0 113.0
140 106.0 112.0
141 30.0 89.0
142 17.0 142.0
143 125.0 68.0
144 121.0 104.0
145 50.0 27.0
146 30.0 84.0
147 66.0 105.0
148 44.0 147.0
149 97.0 39.0
150 41.0 147.0
EOF





